; SPDX-License-Identifier: MPL-2.0
; Copyright (c) 2026 The RIINA Authors.
; Auto-generated from 02_FORMAL/coq/domains/All.v (0 assertions)
; Generated by scripts/generate-full-stack.py
; Module: All

(set-logic ALL)
(set-option :produce-models true)

; Verify all assertions are satisfiable
(check-sat)
(exit)
